n = 40;
m = 73;
w = [3,2,4,9,1,1,10,1,9,6,3,2,6,9,4,8,4,8,1,8,2,2,8,7,8,9,1,5,6,2,4,7,8,6,8,3,9,5,2,10,7,8,1,10,4,10,6,7,8,4,9,1,6,8,4,3,4,10,1,8,4,3,9,4,10,7,8,7,2,10,9,9,3];
edges = array2d(1..m, 1..2, [1,8,1,10,1,22,1,26,1,30,1,34,2,4,2,8,2,9,2,11,2,12,2,31,2,37,3,9,3,15,3,17,3,18,4,5,4,25,4,29,4,34,4,37,5,7,5,8,5,30,5,34,6,15,6,22,6,39,8,12,8,13,8,16,8,28,9,12,9,21,9,25,9,26,10,18,10,23,10,35,11,31,12,20,13,26,14,25,14,28,14,30,16,17,17,27,17,38,18,33,18,34,19,40,20,21,20,28,20,34,20,35,21,30,22,28,22,35,22,40,23,26,24,27,25,34,26,39,27,39,28,39,29,30,30,34,30,35,31,33,33,36,34,35,36,39]);
